!XTB2 OPT
!PAL16
* xyz -1 1 /home/mchrnwsk/prometheozyme/ingredients/lmo-mandalate/optimised/adduct_left_d/adduct_d.xyz
O         -1.60696        1.01130       -2.58647
C         -1.35312        0.41549       -1.31541
C         -0.83830        2.79434        0.51376
C         -2.08086        2.72150        2.97204
C         -4.41490        1.12646        3.41189
C          0.91637        4.39316        1.31377
C         -0.45249        4.35866        3.96207
C         -0.31704        3.57137        1.55932
C         -0.94893        3.53754        2.80628
O         -3.85389       -0.26764       -2.45980
O         -7.31937       -1.15473        0.26029
C         -4.30847       -0.22755       -1.31398
C         -6.18901       -0.66692        0.18883
C         -1.88773        1.87710        0.69522
C         -2.57584        1.88990        1.94381
N         -3.74110        1.07353        2.11140
C         -3.58373        0.41460       -0.16989
C         -4.31270        0.44423        0.97497
N         -5.53601       -0.74729       -1.01839
N         -5.55624       -0.06314        1.19159
N         -2.29617        0.97299       -0.32071
H         -2.53425        0.74430       -2.75445
H         -6.06080       -1.16372       -1.76491
H         -5.21720        0.38938        3.52328
H         -3.71457        0.89738        4.22354
H         -4.85786        2.11525        3.57863
H         -0.39814        2.90481       -0.47123
H         -2.57913        2.74488        3.93499
H          0.69742        5.45890        1.42327
H          1.70537        4.10663        2.01762
H          1.31481        4.23234        0.30610
H          0.55373        4.03839        4.25040
H         -0.43540        5.42013        3.69539
H         -1.09783        4.25232        4.84042
H          0.04085       -0.66411        0.81340
C          0.69269       -0.12523        0.12716
C          0.15181        0.48018       -1.02013
C          1.03229        1.17345       -1.87738
H          0.64747        1.65132       -2.77689
C          2.38518        1.31644       -1.56758
H          3.02932        1.89226       -2.22576
C          2.89282        0.74306       -0.40655
H          3.94109        0.87091       -0.15317
C          2.05122        0.01402        0.43376
H          2.44624       -0.42819        1.34418
H         -1.54782       -0.66163       -1.42448
*